General:
    SYSTEM = TAPD_Me
    ISTART = 0
    ISMEAR = 0   
    SIGMA = 0.05
    EDIFF = 1.0E-6
    EDIFFG = 1.0E-5
    ENCUT = 500
    ISYM = 0
    NELM = 300
    PREC = Accurate
    NELMIN = 8
    LWAVE = .FALSE.
    LCHARG = .FALSE.
    LASPH = .TRUE. 

Van der Waals Interaction (vasp 5.3.5 patched version):
    IVDW = 12

    LCHIMAG = .TRUE. 
    DQ = 0.001 
    ICHIBARE = 1 
    LNMR_SYM_RED = .TRUE. 
    NSLPLINE = .FALSE. 
